53
1 13
5 18
20 30
12 6
18 30
4 34
7 37
13 41
0 40
9 38
17 40
14 39
13 19
17 15
18 4
7 28
21 26
1 30
16 4
10 30
23 4
3 38
6 20
8 0
17 30
18 2
6 15
13 28
1 0
21 27
8 30
22 31
16 24
11 21
2 2
3 18
13 11
3 4
4 3
9 17
17 11
18 19
11 5
18 21
3 40
23 39
2 41
16 37
11 36
10 34
22 40
6 34
8 36

